instances/shortest_path/discrete_knapsack_uncertainty/nohadani_7_8.lp
\ Model nohadani_7_8
\ LP format - for model browsing. Use MPS format to capture full model detail.
\ Signature: 0x917f322750627386
Minimize
  65.12296062065974 y[0,1] + 17.88854381999832 y[0,2]
   + 14.42220510185596 y[0,5] + 65.03076195155643 y[0,6]
   + 65.12296062065974 y[1,0] + 60.40695324215582 y[1,2]
   + 78.44743462982075 y[1,3] + 79.00632886041473 y[1,4]
   + 74.73285756613352 y[1,5] + 17.88854381999832 y[2,0]
   + 60.40695324215582 y[2,1] + 70.80254232723568 y[2,3]
   + 82.73451516749222 y[2,4] + 16.49242250247064 y[2,5]
   + 50.00999900019995 y[2,6] + 78.44743462982075 y[3,1]
   + 70.80254232723568 y[3,2] + 16.1245154965971 y[3,4]
   + 84.17244204607586 y[3,5] + 52.61178575186362 y[3,6]
   + 79.00632886041473 y[4,1] + 82.73451516749222 y[4,2]
   + 16.1245154965971 y[4,3] + 68.73136110975832 y[4,6]
   + 14.42220510185596 y[5,0] + 74.73285756613352 y[5,1]
   + 16.49242250247064 y[5,2] + 84.17244204607586 y[5,3]
   + 53.33854141237835 y[5,6] + 65.03076195155643 y[6,0]
   + 50.00999900019995 y[6,2] + 52.61178575186362 y[6,3]
   + 68.73136110975832 y[6,4] + 53.33854141237835 y[6,5] + x[0,1] + x[0,2]
   + x[0,5] + x[0,6] + x[1,0] + x[1,2] + x[1,3] + x[1,4] + x[1,5] + x[2,0]
   + x[2,1] + x[2,3] + x[2,4] + x[2,5] + x[2,6] + x[3,1] + x[3,2] + x[3,4]
   + x[3,5] + x[3,6] + x[4,1] + x[4,2] + x[4,3] + x[4,6] + x[5,0] + x[5,1]
   + x[5,2] + x[5,3] + x[5,6] + x[6,0] + x[6,2] + x[6,3] + x[6,4] + x[6,5]
   + 6.512296062065975 r[0,1] + 1.788854381999832 r[0,2]
   + 1.442220510185596 r[0,5] + 6.503076195155643 r[0,6]
   + 6.512296062065975 r[1,0] + 6.040695324215583 r[1,2]
   + 7.844743462982075 r[1,3] + 7.900632886041473 r[1,4]
   + 7.473285756613352 r[1,5] + 1.788854381999832 r[2,0]
   + 6.040695324215583 r[2,1] + 7.080254232723568 r[2,3]
   + 8.273451516749223 r[2,4] + 1.649242250247064 r[2,5]
   + 5.000999900019995 r[2,6] + 7.844743462982075 r[3,1]
   + 7.080254232723568 r[3,2] + 1.61245154965971 r[3,4]
   + 8.417244204607586 r[3,5] + 5.261178575186363 r[3,6]
   + 7.900632886041473 r[4,1] + 8.273451516749223 r[4,2]
   + 1.61245154965971 r[4,3] + 6.873136110975833 r[4,6]
   + 1.442220510185596 r[5,0] + 7.473285756613352 r[5,1]
   + 1.649242250247064 r[5,2] + 8.417244204607586 r[5,3]
   + 5.333854141237835 r[5,6] + 6.503076195155643 r[6,0]
   + 5.000999900019995 r[6,2] + 5.261178575186363 r[6,3]
   + 6.873136110975833 r[6,4] + 5.333854141237835 r[6,5]
Subject To
 flow_cons_inner_nodes[1]: y[0,1] - y[1,0] - y[1,2] - y[1,3] - y[1,4]
   - y[1,5] + y[2,1] + y[3,1] + y[4,1] + y[5,1] = 0
 flow_cons_inner_nodes[2]: y[0,2] + y[1,2] - y[2,0] - y[2,1] - y[2,3]
   - y[2,4] - y[2,5] - y[2,6] + y[3,2] + y[4,2] + y[5,2] + y[6,2] = 0
 flow_cons_inner_nodes[3]: y[1,3] + y[2,3] - y[3,1] - y[3,2] - y[3,4]
   - y[3,5] - y[3,6] + y[4,3] + y[5,3] + y[6,3] = 0
 flow_cons_inner_nodes[5]: y[0,5] + y[1,5] + y[2,5] + y[3,5] - y[5,0]
   - y[5,1] - y[5,2] - y[5,3] - y[5,6] + y[6,5] = 0
 flow_cons_inner_nodes[6]: y[0,6] + y[2,6] + y[3,6] + y[4,6] + y[5,6]
   - y[6,0] - y[6,2] - y[6,3] - y[6,4] - y[6,5] = 0
 flow_cons_source: y[0,1] + y[0,2] + y[0,5] + y[0,6] - y[1,0] - y[2,0]
   - y[5,0] - y[6,0] = 1
 flow_cons_target: y[1,4] + y[2,4] + y[3,4] - y[4,1] - y[4,2] - y[4,3]
   - y[4,6] + y[6,4] = 1
 primal_lower: 3.535761404364996 x[0,1] + 0.047139933613225 x[0,2]
   + 4.081282789944038 x[0,5] + 2.930886082239869 x[0,6]
   + 2.127426120913523 x[1,0] + 0.38861144715338 x[1,2]
   + 3.969461450444934 x[1,3] + 4.392763068850451 x[1,4]
   + 3.420976593675116 x[1,5] + 1.578162540965945 x[2,0]
   + 3.004734103747131 x[2,1] + 4.423568447370933 x[2,3]
   + 4.369212376699338 x[2,4] + 4.133704396868091 x[2,5]
   + 1.110800773081362 x[2,6] + 4.152858172422167 x[3,1]
   + 3.786900377701921 x[3,2] + 0.4876799289035991 x[3,4]
   + 1.821129000311341 x[3,5] + 0.5124981564989695 x[3,6]
   + 1.05773896117396 x[4,1] + 3.064844438766011 x[4,2]
   + 2.985211911982591 x[4,3] + 3.043927550564831 x[4,6]
   + 3.584457320350285 x[5,0] + 2.326064664895779 x[5,1]
   + 3.215938080061628 x[5,2] + 0.3353211102543063 x[5,3]
   + 3.719885903886047 x[5,6] + 2.987169270781058 x[6,0]
   + 0.8402199043369379 x[6,2] + 3.432617372970471 x[6,3]
   + 0.3554447925590798 x[6,4] + 0.6041266383879802 x[6,5] + 35 u[0,1]
   + 88 u[0,2] + 74 u[0,5] + 35 u[0,6] + 80 u[1,0] + 9 u[1,2] + 97 u[1,3]
   + 51 u[1,4] + 13 u[1,5] + 30 u[2,0] + 79 u[2,1] + 75 u[2,3] + 92 u[2,4]
   + 28 u[2,5] + 72 u[2,6] + 100 u[3,1] + 69 u[3,2] + 28 u[3,4] + 45 u[3,5]
   + 86 u[3,6] + 17 u[4,1] + 51 u[4,2] + 28 u[4,3] + 10 u[4,6] + 8 u[5,0]
   + 20 u[5,1] + 66 u[5,2] + 15 u[5,3] + 13 u[5,6] + 15 u[6,0] + 65 u[6,2]
   + 59 u[6,3] + 31 u[6,4] + 77 u[6,5] <= 151
 mccormick1[0,1]: - u[0,1] + r[0,1] <= 0
 mccormick1[0,2]: - u[0,2] + r[0,2] <= 0
 mccormick1[0,5]: - u[0,5] + r[0,5] <= 0
 mccormick1[0,6]: - u[0,6] + r[0,6] <= 0
 mccormick1[1,0]: - u[1,0] + r[1,0] <= 0
 mccormick1[1,2]: - u[1,2] + r[1,2] <= 0
 mccormick1[1,3]: - u[1,3] + r[1,3] <= 0
 mccormick1[1,4]: - u[1,4] + r[1,4] <= 0
 mccormick1[1,5]: - u[1,5] + r[1,5] <= 0
 mccormick1[2,0]: - u[2,0] + r[2,0] <= 0
 mccormick1[2,1]: - u[2,1] + r[2,1] <= 0
 mccormick1[2,3]: - u[2,3] + r[2,3] <= 0
 mccormick1[2,4]: - u[2,4] + r[2,4] <= 0
 mccormick1[2,5]: - u[2,5] + r[2,5] <= 0
 mccormick1[2,6]: - u[2,6] + r[2,6] <= 0
 mccormick1[3,1]: - u[3,1] + r[3,1] <= 0
 mccormick1[3,2]: - u[3,2] + r[3,2] <= 0
 mccormick1[3,4]: - u[3,4] + r[3,4] <= 0
 mccormick1[3,5]: - u[3,5] + r[3,5] <= 0
 mccormick1[3,6]: - u[3,6] + r[3,6] <= 0
 mccormick1[4,1]: - u[4,1] + r[4,1] <= 0
 mccormick1[4,2]: - u[4,2] + r[4,2] <= 0
 mccormick1[4,3]: - u[4,3] + r[4,3] <= 0
 mccormick1[4,6]: - u[4,6] + r[4,6] <= 0
 mccormick1[5,0]: - u[5,0] + r[5,0] <= 0
 mccormick1[5,1]: - u[5,1] + r[5,1] <= 0
 mccormick1[5,2]: - u[5,2] + r[5,2] <= 0
 mccormick1[5,3]: - u[5,3] + r[5,3] <= 0
 mccormick1[5,6]: - u[5,6] + r[5,6] <= 0
 mccormick1[6,0]: - u[6,0] + r[6,0] <= 0
 mccormick1[6,2]: - u[6,2] + r[6,2] <= 0
 mccormick1[6,3]: - u[6,3] + r[6,3] <= 0
 mccormick1[6,4]: - u[6,4] + r[6,4] <= 0
 mccormick1[6,5]: - u[6,5] + r[6,5] <= 0
 mccormick2[0,1]: - y[0,1] + r[0,1] <= 0
 mccormick2[0,2]: - y[0,2] + r[0,2] <= 0
 mccormick2[0,5]: - y[0,5] + r[0,5] <= 0
 mccormick2[0,6]: - y[0,6] + r[0,6] <= 0
 mccormick2[1,0]: - y[1,0] + r[1,0] <= 0
 mccormick2[1,2]: - y[1,2] + r[1,2] <= 0
 mccormick2[1,3]: - y[1,3] + r[1,3] <= 0
 mccormick2[1,4]: - y[1,4] + r[1,4] <= 0
 mccormick2[1,5]: - y[1,5] + r[1,5] <= 0
 mccormick2[2,0]: - y[2,0] + r[2,0] <= 0
 mccormick2[2,1]: - y[2,1] + r[2,1] <= 0
 mccormick2[2,3]: - y[2,3] + r[2,3] <= 0
 mccormick2[2,4]: - y[2,4] + r[2,4] <= 0
 mccormick2[2,5]: - y[2,5] + r[2,5] <= 0
 mccormick2[2,6]: - y[2,6] + r[2,6] <= 0
 mccormick2[3,1]: - y[3,1] + r[3,1] <= 0
 mccormick2[3,2]: - y[3,2] + r[3,2] <= 0
 mccormick2[3,4]: - y[3,4] + r[3,4] <= 0
 mccormick2[3,5]: - y[3,5] + r[3,5] <= 0
 mccormick2[3,6]: - y[3,6] + r[3,6] <= 0
 mccormick2[4,1]: - y[4,1] + r[4,1] <= 0
 mccormick2[4,2]: - y[4,2] + r[4,2] <= 0
 mccormick2[4,3]: - y[4,3] + r[4,3] <= 0
 mccormick2[4,6]: - y[4,6] + r[4,6] <= 0
 mccormick2[5,0]: - y[5,0] + r[5,0] <= 0
 mccormick2[5,1]: - y[5,1] + r[5,1] <= 0
 mccormick2[5,2]: - y[5,2] + r[5,2] <= 0
 mccormick2[5,3]: - y[5,3] + r[5,3] <= 0
 mccormick2[5,6]: - y[5,6] + r[5,6] <= 0
 mccormick2[6,0]: - y[6,0] + r[6,0] <= 0
 mccormick2[6,2]: - y[6,2] + r[6,2] <= 0
 mccormick2[6,3]: - y[6,3] + r[6,3] <= 0
 mccormick2[6,4]: - y[6,4] + r[6,4] <= 0
 mccormick2[6,5]: - y[6,5] + r[6,5] <= 0
 mccormick3[0,1]: - y[0,1] - u[0,1] + r[0,1] >= -1
 mccormick3[0,2]: - y[0,2] - u[0,2] + r[0,2] >= -1
 mccormick3[0,5]: - y[0,5] - u[0,5] + r[0,5] >= -1
 mccormick3[0,6]: - y[0,6] - u[0,6] + r[0,6] >= -1
 mccormick3[1,0]: - y[1,0] - u[1,0] + r[1,0] >= -1
 mccormick3[1,2]: - y[1,2] - u[1,2] + r[1,2] >= -1
 mccormick3[1,3]: - y[1,3] - u[1,3] + r[1,3] >= -1
 mccormick3[1,4]: - y[1,4] - u[1,4] + r[1,4] >= -1
 mccormick3[1,5]: - y[1,5] - u[1,5] + r[1,5] >= -1
 mccormick3[2,0]: - y[2,0] - u[2,0] + r[2,0] >= -1
 mccormick3[2,1]: - y[2,1] - u[2,1] + r[2,1] >= -1
 mccormick3[2,3]: - y[2,3] - u[2,3] + r[2,3] >= -1
 mccormick3[2,4]: - y[2,4] - u[2,4] + r[2,4] >= -1
 mccormick3[2,5]: - y[2,5] - u[2,5] + r[2,5] >= -1
 mccormick3[2,6]: - y[2,6] - u[2,6] + r[2,6] >= -1
 mccormick3[3,1]: - y[3,1] - u[3,1] + r[3,1] >= -1
 mccormick3[3,2]: - y[3,2] - u[3,2] + r[3,2] >= -1
 mccormick3[3,4]: - y[3,4] - u[3,4] + r[3,4] >= -1
 mccormick3[3,5]: - y[3,5] - u[3,5] + r[3,5] >= -1
 mccormick3[3,6]: - y[3,6] - u[3,6] + r[3,6] >= -1
 mccormick3[4,1]: - y[4,1] - u[4,1] + r[4,1] >= -1
 mccormick3[4,2]: - y[4,2] - u[4,2] + r[4,2] >= -1
 mccormick3[4,3]: - y[4,3] - u[4,3] + r[4,3] >= -1
 mccormick3[4,6]: - y[4,6] - u[4,6] + r[4,6] >= -1
 mccormick3[5,0]: - y[5,0] - u[5,0] + r[5,0] >= -1
 mccormick3[5,1]: - y[5,1] - u[5,1] + r[5,1] >= -1
 mccormick3[5,2]: - y[5,2] - u[5,2] + r[5,2] >= -1
 mccormick3[5,3]: - y[5,3] - u[5,3] + r[5,3] >= -1
 mccormick3[5,6]: - y[5,6] - u[5,6] + r[5,6] >= -1
 mccormick3[6,0]: - y[6,0] - u[6,0] + r[6,0] >= -1
 mccormick3[6,2]: - y[6,2] - u[6,2] + r[6,2] >= -1
 mccormick3[6,3]: - y[6,3] - u[6,3] + r[6,3] >= -1
 mccormick3[6,4]: - y[6,4] - u[6,4] + r[6,4] >= -1
 mccormick3[6,5]: - y[6,5] - u[6,5] + r[6,5] >= -1
Bounds
Binaries
 y[0,1] y[0,2] y[0,5] y[0,6] y[1,0] y[1,2] y[1,3] y[1,4] y[1,5] y[2,0]
 y[2,1] y[2,3] y[2,4] y[2,5] y[2,6] y[3,1] y[3,2] y[3,4] y[3,5] y[3,6]
 y[4,1] y[4,2] y[4,3] y[4,6] y[5,0] y[5,1] y[5,2] y[5,3] y[5,6] y[6,0]
 y[6,2] y[6,3] y[6,4] y[6,5] x[0,1] x[0,2] x[0,5] x[0,6] x[1,0] x[1,2]
 x[1,3] x[1,4] x[1,5] x[2,0] x[2,1] x[2,3] x[2,4] x[2,5] x[2,6] x[3,1]
 x[3,2] x[3,4] x[3,5] x[3,6] x[4,1] x[4,2] x[4,3] x[4,6] x[5,0] x[5,1]
 x[5,2] x[5,3] x[5,6] x[6,0] x[6,2] x[6,3] x[6,4] x[6,5] u[0,1] u[0,2]
 u[0,5] u[0,6] u[1,0] u[1,2] u[1,3] u[1,4] u[1,5] u[2,0] u[2,1] u[2,3]
 u[2,4] u[2,5] u[2,6] u[3,1] u[3,2] u[3,4] u[3,5] u[3,6] u[4,1] u[4,2]
 u[4,3] u[4,6] u[5,0] u[5,1] u[5,2] u[5,3] u[5,6] u[6,0] u[6,2] u[6,3]
 u[6,4] u[6,5] r[0,1] r[0,2] r[0,5] r[0,6] r[1,0] r[1,2] r[1,3] r[1,4]
 r[1,5] r[2,0] r[2,1] r[2,3] r[2,4] r[2,5] r[2,6] r[3,1] r[3,2] r[3,4]
 r[3,5] r[3,6] r[4,1] r[4,2] r[4,3] r[4,6] r[5,0] r[5,1] r[5,2] r[5,3]
 r[5,6] r[6,0] r[6,2] r[6,3] r[6,4] r[6,5]
End
